\ENCODING=ISO-8859-1
\Problem name: IloCplex

Minimize
 Obj_GrandSubP: Beta.0#0
Subject To
 Const11b.0:    Beta.0#0 - 3 x.1#1 - 3 x.2#2 - 3 x.3#3 - 2 x.4#4 - 3 x.5#5
                - 3 x.6#6 - 2 y.1#7 - 3 y.2#8 - 2 y.3#9 >= 0
 Const11c.CY0:  x.1#1 + vertex.3#10 + arc.3.17#11 + vertex.17#12 + arc.17.21#13
                + vertex.21#14 + arc.21.3#15 >= 1
 Const11c.CY1:  x.2#2 + vertex.4#16 + arc.4.30#17 + vertex.30#18 + arc.30.7#19
                + vertex.7#20 + arc.7.4#21 >= 1
 Const11c.CY2:  x.3#3 + vertex.6#22 + arc.6.10#23 + vertex.10#24 + arc.10.13#25
                + vertex.13#26 + arc.13.6#27 >= 1
 Const11c.CY3:  x.4#4 + vertex.16#28 + arc.16.29#29 + vertex.29#30
                + arc.29.16#31 >= 1
 Const11c.CY4:  x.5#5 + vertex.20#32 + arc.20.26#33 + vertex.26#34
                + arc.26.22#35 + vertex.22#36 + arc.22.20#37 >= 1
 Const11c.CY5:  x.6#6 + vertex.24#38 + arc.24.27#39 + vertex.27#40
                + arc.27.31#41 + vertex.31#42 + arc.31.24#43 >= 1
 Const11c.CH6:  y.1#7 + vertex.33#44 + arc.33.12#45 + vertex.12#46
                + arc.12.15#47 + vertex.15#48 >= 1
 Const11c.CH7:  y.2#8 + vertex.34#49 + arc.34.18#50 + vertex.18#51
                + arc.18.25#52 + vertex.25#53 + arc.25.14#54 + vertex.14#55
                >= 1
 Const11c.CH8:  y.3#9 + vertex.35#56 + arc.35.23#57 + vertex.23#58
                + arc.23.5#59 + vertex.5#60 >= 1
 VtxSum:        vertex.3#10 + vertex.17#12 + vertex.21#14 + vertex.4#16
                + vertex.30#18 + vertex.7#20 + vertex.6#22 + vertex.10#24
                + vertex.13#26 + vertex.16#28 + vertex.29#30 + vertex.20#32
                + vertex.26#34 + vertex.22#36 + vertex.24#38 + vertex.27#40
                + vertex.31#42 + vertex.33#44 + vertex.12#46 + vertex.15#48
                + vertex.34#49 + vertex.18#51 + vertex.25#53 + vertex.14#55
                + vertex.35#56 + vertex.23#58 + vertex.5#60 + vertex.1#61
                + vertex.2#62 + vertex.8#63 + vertex.9#64 + vertex.11#65
                + vertex.19#66 + vertex.28#67 + vertex.32#68 <= 1
 ArcSum:        arc.3.17#11 + arc.17.21#13 + arc.21.3#15 + arc.4.30#17
                + arc.30.7#19 + arc.7.4#21 + arc.6.10#23 + arc.10.13#25
                + arc.13.6#27 + arc.16.29#29 + arc.29.16#31 + arc.20.26#33
                + arc.26.22#35 + arc.22.20#37 + arc.24.27#39 + arc.27.31#41
                + arc.31.24#43 + arc.33.12#45 + arc.12.15#47 + arc.34.18#50
                + arc.18.25#52 + arc.25.14#54 + arc.35.23#57 + arc.23.5#59
                + arc.1.16#69 + arc.1.4#70 + arc.1.24#71 + arc.1.8#72
                + arc.1.5#73 + arc.1.27#74 + arc.1.6#75 + arc.1.32#76
                + arc.1.2#77 + arc.1.30#78 + arc.1.3#79 + arc.1.31#80
                + arc.1.18#81 + arc.1.23#82 + arc.1.7#83 + arc.1.10#84
                + arc.1.15#85 + arc.1.26#86 + arc.1.19#87 + arc.1.17#88
                + arc.2.17#89 + arc.2.24#90 + arc.2.30#91 + arc.2.15#92
                + arc.2.29#93 + arc.2.27#94 + arc.2.10#95 + arc.2.4#96
                + arc.3.10#97 + arc.3.24#98 + arc.3.30#99 + arc.3.15#100
                + arc.3.27#101 + arc.4.24#102 + arc.4.29#103 + arc.4.15#104
                + arc.4.27#105 + arc.4.10#106 + arc.5.27#107 + arc.6.24#108
                + arc.6.27#109 + arc.6.15#110 + arc.6.30#111 + arc.6.4#112
                + arc.7.15#113 + arc.7.25#114 + arc.7.27#115 + arc.7.30#116
                + arc.7.10#117 + arc.7.24#118 + arc.8.25#119 + arc.8.24#120
                + arc.8.15#121 + arc.8.27#122 + arc.9.6#123 + arc.9.16#124
                + arc.9.27#125 + arc.9.5#126 + arc.9.7#127 + arc.10.16#128
                + arc.10.27#129 + arc.10.7#130 + arc.10.6#131 + arc.10.5#132
                + arc.11.8#133 + arc.11.24#134 + arc.11.3#135 + arc.11.7#136
                + arc.11.12#137 + arc.11.29#138 + arc.11.16#139 + arc.11.31#140
                + arc.11.5#141 + arc.11.19#142 + arc.11.21#143 + arc.11.18#144
                + arc.11.27#145 + arc.11.14#146 + arc.11.30#147 + arc.11.23#148
                + arc.11.26#149 + arc.11.15#150 + arc.11.6#151 + arc.11.10#152
                + arc.11.17#153 + arc.12.24#154 + arc.12.29#155 + arc.12.27#156
                + arc.12.4#157 + arc.12.17#158 + arc.12.30#159 + arc.12.10#160
                + arc.13.16#161 + arc.13.5#162 + arc.13.7#163 + arc.14.27#164
                + arc.15.27#165 + arc.16.15#166 + arc.16.24#167 + arc.16.27#168
                + arc.16.4#169 + arc.16.10#170 + arc.17.8#171 + arc.17.4#172
                + arc.17.15#173 + arc.17.6#174 + arc.17.3#175 + arc.17.19#176
                + arc.17.14#177 + arc.17.9#178 + arc.17.5#179 + arc.17.27#180
                + arc.17.2#181 + arc.17.7#182 + arc.17.16#183 + arc.17.26#184
                + arc.17.24#185 + arc.17.18#186 + arc.17.25#187 + arc.17.30#188
                + arc.18.10#189 + arc.18.30#190 + arc.18.27#191 + arc.18.4#192
                + arc.18.15#193 + arc.18.29#194 + arc.18.24#195 + arc.19.27#196
                + arc.20.17#197 + arc.20.19#198 + arc.20.2#199 + arc.20.16#200
                + arc.20.6#201 + arc.20.3#202 + arc.20.14#203 + arc.20.7#204
                + arc.20.15#205 + arc.20.12#206 + arc.20.10#207 + arc.20.18#208
                + arc.20.30#209 + arc.20.25#210 + arc.20.24#211 + arc.20.5#212
                + arc.20.29#213 + arc.20.22#214 + arc.20.27#215 + arc.20.23#216
                + arc.20.8#217 + arc.20.31#218 + arc.21.12#219 + arc.21.29#220
                + arc.21.4#221 + arc.21.8#222 + arc.21.30#223 + arc.21.24#224
                + arc.21.16#225 + arc.21.5#226 + arc.21.19#227 + arc.21.6#228
                + arc.21.7#229 + arc.21.9#230 + arc.21.31#231 + arc.21.27#232
                + arc.21.23#233 + arc.21.10#234 + arc.21.15#235 + arc.21.14#236
                + arc.21.26#237 + arc.21.22#238 + arc.21.18#239 + arc.22.27#240
                + arc.22.15#241 + arc.22.29#242 + arc.22.25#243 + arc.22.30#244
                + arc.22.10#245 + arc.22.24#246 + arc.23.16#247 + arc.23.6#248
                + arc.23.7#249 + arc.23.27#250 + arc.24.16#251 + arc.24.6#252
                + arc.24.5#253 + arc.25.16#254 + arc.25.31#255 + arc.25.29#256
                + arc.25.5#257 + arc.25.12#258 + arc.25.18#259 + arc.25.3#260
                + arc.25.27#261 + arc.25.7#262 + arc.25.10#263 + arc.25.23#264
                + arc.25.8#265 + arc.25.4#266 + arc.25.24#267 + arc.25.30#268
                + arc.25.6#269 + arc.25.22#270 + arc.25.15#271 + arc.25.26#272
                + arc.25.19#273 + arc.26.15#274 + arc.26.10#275 + arc.26.25#276
                + arc.26.24#277 + arc.26.30#278 + arc.26.17#279 + arc.27.5#280
                + arc.27.19#281 + arc.27.2#282 + arc.27.15#283 + arc.27.13#284
                + arc.27.4#285 + arc.27.18#286 + arc.27.32#287 + arc.27.12#288
                + arc.27.16#289 + arc.27.25#290 + arc.27.29#291 + arc.27.30#292
                + arc.27.24#293 + arc.27.3#294 + arc.27.10#295 + arc.27.6#296
                + arc.27.7#297 + arc.27.23#298 + arc.28.10#299 + arc.28.25#300
                + arc.28.9#301 + arc.28.26#302 + arc.28.24#303 + arc.28.15#304
                + arc.28.3#305 + arc.28.23#306 + arc.28.18#307 + arc.28.16#308
                + arc.28.4#309 + arc.28.21#310 + arc.28.6#311 + arc.28.17#312
                + arc.28.27#313 + arc.28.5#314 + arc.28.12#315 + arc.29.27#316
                + arc.29.6#317 + arc.29.7#318 + arc.29.5#319 + arc.30.5#320
                + arc.30.27#321 + arc.30.16#322 + arc.30.6#323 + arc.31.30#324
                + arc.31.4#325 + arc.31.10#326 + arc.31.15#327 + arc.31.29#328
                + arc.32.22#329 + arc.32.27#330 + arc.32.15#331 + arc.32.25#332
                + arc.32.24#333 + arc.32.30#334 + arc.32.10#335 + arc.32.29#336
                + arc.32.20#337 + arc.32.17#338 + arc.33.3#339 + arc.33.8#340
                + arc.33.2#341 + arc.33.19#342 + arc.33.26#343 + arc.33.31#344
                + arc.33.18#345 + arc.33.14#346 + arc.33.23#347 + arc.34.26#348
                + arc.34.19#349 + arc.34.3#350 + arc.34.23#351 + arc.34.8#352
                + arc.34.21#353 + arc.34.31#354 + arc.34.12#355 + arc.34.9#356
                + arc.35.21#357 + arc.35.9#358 + arc.35.14#359 + arc.35.2#360
                + arc.35.3#361 + arc.35.19#362 + arc.35.18#363 + arc.35.12#364
                + arc.35.26#365 + arc.35.31#366 <= 1
 Const11b.1:    Beta.0#0 - 3 x.3#3 - 3 x.7#367 - 3 x.8#368 - 3 x.9#369
                - 2 x.10#370 - 2 x.11#371 - 2 x.12#372 - 3 x.4#373 - x.5#374
                - x.6#375 >= 0
 Const11c.CY9:  vertex.27#40 + arc.27.31#41 + vertex.31#42 + vertex.15#48
                + arc.15.27#165 + arc.31.15#327 + x.7#367 >= 1
 Const11c.CY10: vertex.17#12 + arc.17.21#13 + vertex.21#14 + vertex.12#46
                + arc.12.17#158 + arc.21.12#219 + x.8#368 >= 1
 Const11c.CY11: vertex.4#16 + vertex.16#28 + vertex.29#30 + arc.29.16#31
                + arc.4.29#103 + arc.16.4#169 + x.9#369 >= 1
 Const11c.CY12: vertex.20#32 + vertex.22#36 + arc.22.20#37 + arc.20.22#214
                + x.10#370 >= 1
 Const11c.CY13: vertex.26#34 + vertex.25#53 + arc.25.26#272 + arc.26.25#276
                + x.11#371 >= 1
 Const11c.CY14: vertex.30#18 + arc.30.7#19 + vertex.7#20 + arc.7.30#116
                + x.12#372 >= 1
 Const11c.CH15: vertex.24#38 + vertex.33#44 + vertex.18#51 + vertex.5#60
                + arc.18.24#195 + arc.24.5#253 + arc.33.18#345 + x.4#373 >= 1
 Const11c.CH16: vertex.34#49 + vertex.23#58 + arc.34.23#351 + x.5#374 >= 1
 Const11c.CH17: vertex.14#55 + vertex.35#56 + arc.35.14#359 + x.6#375 >= 1
 Const11b.2:    Beta.0#0 - 3 x.8#368 - 3 x.13#376 - 3 x.14#377 - 3 x.15#378
                - 2 x.16#379 - 2 x.17#380 - 2 x.7#381 - 2 x.8#382 - x.9#383
                >= 0
 Const11c.CY18: vertex.4#16 + vertex.7#20 + arc.7.4#21 + vertex.29#30
                + arc.4.29#103 + arc.29.7#318 + x.13#376 >= 1
 Const11c.CY19: vertex.26#34 + arc.26.22#35 + vertex.22#36 + vertex.25#53
                + arc.22.25#243 + arc.25.26#272 + x.14#377 >= 1
 Const11c.CY20: vertex.13#26 + vertex.27#40 + vertex.5#60 + arc.5.27#107
                + arc.13.5#162 + arc.27.13#284 + x.15#378 >= 1
 Const11c.CY21: vertex.16#28 + vertex.24#38 + arc.16.24#167 + arc.24.16#251
                + x.16#379 >= 1
 Const11c.CY22: vertex.30#18 + vertex.6#22 + arc.6.30#111 + arc.30.6#323
                + x.17#380 >= 1
 Const11c.CH23: vertex.3#10 + vertex.33#44 + vertex.15#48 + arc.3.15#100
                + arc.33.3#339 + x.7#381 >= 1
 Const11c.CH24: vertex.10#24 + vertex.31#42 + vertex.35#56 + arc.31.10#326
                + arc.35.31#366 + x.8#382 >= 1
 Const11c.CH25: vertex.34#49 + arc.34.18#50 + vertex.18#51 + x.9#383 >= 1
 Const11b.3:    Beta.0#0 - 2 x.4#4 - 3 x.5#5 - 2 x.17#380 - 3 x.18#384
                - 3 x.19#385 - 2 x.20#386 - 2 x.21#387 - 3 x.10#388
                - 2 x.11#389 - x.12#390 >= 0
 Const11c.CY26: vertex.24#38 + arc.24.27#39 + vertex.27#40 + vertex.12#46
                + arc.12.24#154 + arc.27.12#288 + x.18#384 >= 1
 Const11c.CY27: vertex.7#20 + vertex.10#24 + arc.10.13#25 + vertex.13#26
                + arc.7.10#117 + arc.13.7#163 + x.19#385 >= 1
 Const11c.CY28: vertex.18#51 + arc.18.25#52 + vertex.25#53 + arc.25.18#259
                + x.20#386 >= 1
 Const11c.CY29: vertex.3#10 + arc.3.17#11 + vertex.17#12 + arc.17.3#175
                + x.21#387 >= 1
 Const11c.CH30: vertex.4#16 + vertex.31#42 + vertex.15#48 + vertex.35#56
                + arc.4.15#104 + arc.31.4#325 + arc.35.31#366 + x.10#388 >= 1
 Const11c.CH31: vertex.34#49 + vertex.23#58 + arc.23.5#59 + vertex.5#60
                + arc.34.23#351 + x.11#389 >= 1
 Const11c.CH32: vertex.33#44 + vertex.14#55 + arc.33.14#346 + x.12#390 >= 1
 Const11b.4:    Beta.0#0 - 2 x.4#4 - 3 x.5#5 - 3 x.15#378 - 2 x.20#386
                - x.12#390 - 3 x.22#391 - 2 x.23#392 - x.24#393 - 3 x.13#394
                - 2 x.14#395 >= 0
 Const11c.CY33: vertex.4#16 + vertex.6#22 + vertex.24#38 + arc.4.24#102
                + arc.6.4#112 + arc.24.6#252 + x.22#391 >= 1
 Const11c.CY34: vertex.7#20 + vertex.10#24 + arc.7.10#117 + arc.10.7#130
                + x.23#392 >= 1
 Const11c.CY35: vertex.17#12 + vertex.2#62 + arc.2.17#89 + arc.17.2#181
                + x.24#393 >= 1
 Const11c.CH36: vertex.21#14 + vertex.30#18 + vertex.31#42 + vertex.35#56
                + arc.21.31#231 + arc.31.30#324 + arc.35.21#357 + x.13#394 >= 1
 Const11c.CH37: vertex.12#46 + arc.12.15#47 + vertex.15#48 + vertex.34#49
                + arc.34.12#355 + x.14#395 >= 1
 Const11b.5:    Beta.0#0 - 2 x.4#4 - 3 x.8#368 - 2 x.12#372 - 2 x.20#386
                - x.12#390 - 3 x.25#396 - 2 x.26#397 - 3 x.15#398 - 3 x.16#399
                >= 0
 Const11c.CY38: vertex.27#40 + vertex.23#58 + arc.23.5#59 + vertex.5#60
                + arc.5.27#107 + arc.27.23#298 + x.25#396 >= 1
 Const11c.CY39: vertex.6#22 + vertex.24#38 + arc.6.24#108 + arc.24.6#252
                + x.26#397 >= 1
 Const11c.CH40: vertex.4#16 + vertex.10#24 + vertex.31#42 + vertex.35#56
                + arc.4.10#106 + arc.31.4#325 + arc.35.31#366 + x.15#398 >= 1
 Const11c.CH41: vertex.26#34 + arc.26.22#35 + vertex.22#36 + vertex.15#48
                + vertex.34#49 + arc.22.15#241 + arc.34.26#348 + x.16#399 >= 1
 Const11b.6:    Beta.0#0 - 3 x.14#377 - 2 x.17#380 - 3 x.19#385 - x.24#393
                - 3 x.27#400 - 3 x.28#401 - 3 x.17#402 - 2 x.18#403 - x.19#404
                >= 0
 Const11c.CY42: vertex.4#16 + vertex.16#28 + vertex.24#38 + arc.4.24#102
                + arc.16.4#169 + arc.24.16#251 + x.27#400 >= 1
 Const11c.CY43: vertex.27#40 + vertex.15#48 + vertex.18#51 + arc.15.27#165
                + arc.18.15#193 + arc.27.18#286 + x.28#401 >= 1
 Const11c.CH44: vertex.21#14 + vertex.34#49 + vertex.23#58 + arc.23.5#59
                + vertex.5#60 + arc.21.23#233 + arc.34.21#353 + x.17#402 >= 1
 Const11c.CH45: vertex.29#30 + vertex.31#42 + vertex.35#56 + arc.31.29#328
                + arc.35.31#366 + x.18#403 >= 1
 Const11c.CH46: vertex.33#44 + arc.33.12#45 + vertex.12#46 + x.19#404 >= 1
 Const11b.7:    Beta.0#0 - 2 x.4#4 - 3 x.7#367 - 3 x.8#368 - x.6#375
                - 3 x.14#377 - 2 x.17#380 - x.9#383 - 3 x.19#385 - 3 x.20#405
                >= 0
 Const11c.CH47: vertex.3#10 + vertex.24#38 + vertex.33#44 + vertex.5#60
                + arc.3.24#98 + arc.24.5#253 + arc.33.3#339 + x.20#405 >= 1
 Const11b.8:    Beta.0#0 - 2 x.17#380 - 3 x.19#385 - 2 x.20#386 - 2 x.21#387
                - 3 x.27#400 - 3 x.17#402 - x.29#406 - 3 x.21#407 - 2 x.22#408
                >= 0
 Const11c.CY48: vertex.27#40 + vertex.32#68 + arc.27.32#287 + arc.32.27#330
                + x.29#406 >= 1
 Const11c.CH49: vertex.26#34 + arc.26.22#35 + vertex.22#36 + vertex.33#44
                + vertex.15#48 + arc.22.15#241 + arc.33.26#343 + x.21#407 >= 1
 Const11c.CH50: vertex.29#30 + vertex.12#46 + vertex.35#56 + arc.12.29#155
                + arc.35.12#364 + x.22#408 >= 1
 Const11b.9:    Beta.0#0 - 3 x.1#1 - 2 x.4#4 - 3 x.5#5 - 2 y.1#7 - 2 x.12#372
                - x.6#375 - 2 x.20#386 - 2 x.11#389 - 2 x.26#397 - 3 x.30#409
                >= 0
 Const11c.CY51: vertex.10#24 + vertex.27#40 + arc.27.31#41 + vertex.31#42
                + arc.10.27#129 + arc.31.10#326 + x.30#409 >= 1
 Const11b.10:   Beta.0#0 - 3 x.6#6 - 2 x.20#386 - 2 x.21#387 - 3 x.21#407
                - 3 x.31#410 - 3 x.32#411 - 3 x.23#412 - 2 x.24#413 >= 0
 Const11c.CY52: vertex.4#16 + vertex.6#22 + vertex.29#30 + arc.4.29#103
                + arc.6.4#112 + arc.29.6#317 + x.31#410 >= 1
 Const11c.CY53: vertex.10#24 + arc.10.13#25 + vertex.13#26 + vertex.16#28
                + arc.13.16#161 + arc.16.10#170 + x.32#411 >= 1
 Const11c.CH54: vertex.21#14 + vertex.35#56 + vertex.23#58 + arc.23.5#59
                + vertex.5#60 + arc.21.23#233 + arc.35.21#357 + x.23#412 >= 1
 Const11c.CH55: vertex.30#18 + vertex.12#46 + vertex.34#49 + arc.12.30#159
                + arc.34.12#355 + x.24#413 >= 1
 Const11b.11:   Beta.0#0 - 2 x.12#372 - 3 x.14#377 - 3 x.15#378 - 2 x.16#379
                - 2 x.21#387 - x.12#390 - 3 x.31#410 - 3 x.25#414 - x.26#415
                >= 0
 Const11c.CH56: vertex.21#14 + vertex.15#48 + vertex.34#49 + vertex.18#51
                + arc.18.15#193 + arc.21.18#239 + arc.34.21#353 + x.25#414 >= 1
 Const11c.CH57: vertex.12#46 + vertex.35#56 + arc.35.12#364 + x.26#415 >= 1
 Const11b.12:   Beta.0#0 - 3 x.9#369 - 3 x.19#385 - 2 x.21#387 - 2 x.26#397
                - 3 x.21#407 - 3 x.23#412 - 3 x.33#416 - x.34#417 - x.27#418
                >= 0
 Const11c.CY58: vertex.30#18 + vertex.27#40 + vertex.12#46 + arc.12.30#159
                + arc.27.12#288 + arc.30.27#321 + x.33#416 >= 1
 Const11c.CY59: vertex.25#53 + vertex.8#63 + arc.8.25#119 + arc.25.8#265
                + x.34#417 >= 1
 Const11c.CH60: vertex.31#42 + vertex.34#49 + arc.34.31#354 + x.27#418 >= 1
 Const11b.13:   Beta.0#0 - 3 x.1#1 - 3 x.5#5 - 2 x.16#379 - 2 x.20#386
                - 2 x.23#392 - x.29#406 - 3 x.31#410 - 2 x.24#413 - 2 x.28#419
                - 2 x.29#420 >= 0
 Const11c.CH61: vertex.31#42 + vertex.15#48 + vertex.35#56 + arc.31.15#327
                + arc.35.31#366 + x.28#419 >= 1
 Const11c.CH62: vertex.33#44 + vertex.23#58 + arc.23.5#59 + vertex.5#60
                + arc.33.23#347 + x.29#420 >= 1
 Const11b.14:   Beta.0#0 - 2 x.4#4 - 3 x.8#368 - 3 x.19#385 - 2 x.20#386
                - 3 x.10#388 - 3 x.25#396 - 3 x.30#421 - 2 x.31#422 >= 0
 Const11c.CH63: vertex.26#34 + arc.26.22#35 + vertex.22#36 + vertex.24#38
                + vertex.33#44 + arc.22.24#246 + arc.33.26#343 + x.30#421 >= 1
 Const11c.CH64: vertex.3#10 + vertex.30#18 + vertex.34#49 + arc.3.30#99
                + arc.34.3#350 + x.31#422 >= 1
 Const11b.15:   Beta.0#0 - 3 x.1#1 - 3 x.5#5 - 2 x.17#380 - 3 x.19#385
                - 2 x.20#386 - x.12#390 - 3 x.27#400 - 3 x.35#423 - 3 x.32#424
                - x.33#425 >= 0
 Const11c.CY65: vertex.27#40 + vertex.12#46 + arc.12.15#47 + vertex.15#48
                + arc.15.27#165 + arc.27.12#288 + x.35#423 >= 1
 Const11c.CH66: vertex.29#30 + vertex.31#42 + vertex.34#49 + vertex.5#60
                + arc.29.5#319 + arc.31.29#328 + arc.34.31#354 + x.32#424 >= 1
 Const11c.CH67: vertex.35#56 + arc.35.23#57 + vertex.23#58 + x.33#425 >= 1
 Const11b.16:   Beta.0#0 - 2 y.3#9 - 3 x.7#367 - 3 x.8#368 - 3 x.13#376
                - 3 x.14#377 - 2 x.17#380 - x.12#390 - 3 x.32#411 - x.34#426
                >= 0
 Const11c.CH68: vertex.3#10 + vertex.34#49 + arc.34.3#350 + x.34#426 >= 1
 Const11b.17:   Beta.0#0 - 3 x.2#2 - 3 x.3#3 - 2 x.20#386 - 2 x.21#387
                - 3 x.21#407 - 3 x.23#412 - 3 x.36#427 - 2 x.35#428 >= 0
 Const11c.CY69: vertex.29#30 + vertex.27#40 + vertex.12#46 + arc.12.29#155
                + arc.27.12#288 + arc.29.27#316 + x.36#427 >= 1
 Const11c.CH70: vertex.24#38 + vertex.31#42 + arc.31.24#43 + vertex.34#49
                + arc.34.31#354 + x.35#428 >= 1
 Const11b.18:   Beta.0#0 - 2 x.10#370 - 2 x.11#371 - 3 x.13#376 - 3 x.15#378
                - 2 x.16#379 - 2 x.17#380 - 2 x.21#387 - x.12#390 - 3 x.36#429
                - 2 x.37#430 >= 0
 Const11c.CH71: vertex.21#14 + vertex.31#42 + vertex.15#48 + vertex.34#49
                + arc.21.31#231 + arc.31.15#327 + arc.34.21#353 + x.36#429 >= 1
 Const11c.CH72: vertex.10#24 + vertex.18#51 + vertex.35#56 + arc.18.10#189
                + arc.35.18#363 + x.37#430 >= 1
 Const11b.19:   Beta.0#0 - 3 x.3#3 - 2 x.12#372 - 3 x.14#377 - 2 x.21#387
                - x.12#390 - 3 x.25#396 - 3 x.27#400 - x.26#415 - 3 x.38#431
                >= 0
 Const11c.CH73: vertex.21#14 + vertex.29#30 + vertex.31#42 + vertex.34#49
                + arc.21.31#231 + arc.31.29#328 + arc.34.21#353 + x.38#431 >= 1
 Const11b.20:   Beta.0#0 - 3 x.1#1 - 2 x.4#4 - 3 x.14#377 - 3 x.19#385
                - 3 x.22#391 - 2 x.28#419 - 2 x.29#420 - 2 x.37#432 - x.39#433
                >= 0
 Const11c.CY74: vertex.27#40 + vertex.18#51 + arc.18.27#191 + arc.27.18#286
                + x.37#432 >= 1
 Const11c.CH75: vertex.12#46 + vertex.34#49 + arc.34.12#355 + x.39#433 >= 1
 Const11b.21:   Beta.0#0 - 3 x.3#3 - 3 x.7#367 - 3 x.8#368 - 2 x.12#372
                - x.6#375 - 3 x.14#377 - 2 x.11#389 - 3 x.27#400 - x.40#434
                >= 0
 Const11c.CH76: vertex.3#10 + vertex.33#44 + arc.33.3#339 + x.40#434 >= 1
 Const11b.22:   Beta.0#0 - 3 x.14#377 - 2 x.16#379 - 2 x.17#380 - 3 x.19#385
                - 2 x.21#387 - x.12#390 - 2 x.38#435 - 3 x.41#436 - 3 x.42#437
                >= 0
 Const11c.CY77: vertex.20#32 + vertex.27#40 + vertex.32#68 + arc.20.27#215
                + arc.27.32#287 + arc.32.20#337 + x.38#435 >= 1
 Const11c.CH78: vertex.4#16 + vertex.29#30 + vertex.18#51 + vertex.35#56
                + arc.4.29#103 + arc.18.4#192 + arc.35.18#363 + x.41#436 >= 1
 Const11c.CH79: vertex.21#14 + vertex.12#46 + arc.12.15#47 + vertex.15#48
                + vertex.34#49 + arc.21.12#219 + arc.34.21#353 + x.42#437 >= 1
 Const11b.23:   Beta.0#0 - 3 x.9#369 - 3 x.19#385 - 2 x.21#387 - 2 x.26#397
                - 3 x.21#407 - 3 x.23#412 - 3 x.33#416 - x.34#417 - x.27#418
                >= 0
Bounds
 0 <= x.1#1 <= 1
 0 <= x.2#2 <= 1
 0 <= x.3#3 <= 1
 0 <= x.4#4 <= 1
 0 <= x.5#5 <= 1
 0 <= x.6#6 <= 1
 0 <= y.1#7 <= 1
 0 <= y.2#8 <= 1
 0 <= y.3#9 <= 1
 0 <= vertex.3#10 <= 1
 0 <= arc.3.17#11 <= 1
 0 <= vertex.17#12 <= 1
 0 <= arc.17.21#13 <= 1
 0 <= vertex.21#14 <= 1
 0 <= arc.21.3#15 <= 1
 0 <= vertex.4#16 <= 1
 0 <= arc.4.30#17 <= 1
 0 <= vertex.30#18 <= 1
 0 <= arc.30.7#19 <= 1
 0 <= vertex.7#20 <= 1
 0 <= arc.7.4#21 <= 1
 0 <= vertex.6#22 <= 1
 0 <= arc.6.10#23 <= 1
 0 <= vertex.10#24 <= 1
 0 <= arc.10.13#25 <= 1
 0 <= vertex.13#26 <= 1
 0 <= arc.13.6#27 <= 1
 0 <= vertex.16#28 <= 1
 0 <= arc.16.29#29 <= 1
 0 <= vertex.29#30 <= 1
 0 <= arc.29.16#31 <= 1
 0 <= vertex.20#32 <= 1
 0 <= arc.20.26#33 <= 1
 0 <= vertex.26#34 <= 1
 0 <= arc.26.22#35 <= 1
 0 <= vertex.22#36 <= 1
 0 <= arc.22.20#37 <= 1
 0 <= vertex.24#38 <= 1
 0 <= arc.24.27#39 <= 1
 0 <= vertex.27#40 <= 1
 0 <= arc.27.31#41 <= 1
 0 <= vertex.31#42 <= 1
 0 <= arc.31.24#43 <= 1
 0 <= vertex.33#44 <= 1
 0 <= arc.33.12#45 <= 1
 0 <= vertex.12#46 <= 1
 0 <= arc.12.15#47 <= 1
 0 <= vertex.15#48 <= 1
 0 <= vertex.34#49 <= 1
 0 <= arc.34.18#50 <= 1
 0 <= vertex.18#51 <= 1
 0 <= arc.18.25#52 <= 1
 0 <= vertex.25#53 <= 1
 0 <= arc.25.14#54 <= 1
 0 <= vertex.14#55 <= 1
 0 <= vertex.35#56 <= 1
 0 <= arc.35.23#57 <= 1
 0 <= vertex.23#58 <= 1
 0 <= arc.23.5#59 <= 1
 0 <= vertex.5#60 <= 1
 0 <= vertex.1#61 <= 1
 0 <= vertex.2#62 <= 1
 0 <= vertex.8#63 <= 1
 0 <= vertex.9#64 <= 1
 0 <= vertex.11#65 <= 1
 0 <= vertex.19#66 <= 1
 0 <= vertex.28#67 <= 1
 0 <= vertex.32#68 <= 1
 0 <= arc.1.16#69 <= 1
 0 <= arc.1.4#70 <= 1
 0 <= arc.1.24#71 <= 1
 0 <= arc.1.8#72 <= 1
 0 <= arc.1.5#73 <= 1
 0 <= arc.1.27#74 <= 1
 0 <= arc.1.6#75 <= 1
 0 <= arc.1.32#76 <= 1
 0 <= arc.1.2#77 <= 1
 0 <= arc.1.30#78 <= 1
 0 <= arc.1.3#79 <= 1
 0 <= arc.1.31#80 <= 1
 0 <= arc.1.18#81 <= 1
 0 <= arc.1.23#82 <= 1
 0 <= arc.1.7#83 <= 1
 0 <= arc.1.10#84 <= 1
 0 <= arc.1.15#85 <= 1
 0 <= arc.1.26#86 <= 1
 0 <= arc.1.19#87 <= 1
 0 <= arc.1.17#88 <= 1
 0 <= arc.2.17#89 <= 1
 0 <= arc.2.24#90 <= 1
 0 <= arc.2.30#91 <= 1
 0 <= arc.2.15#92 <= 1
 0 <= arc.2.29#93 <= 1
 0 <= arc.2.27#94 <= 1
 0 <= arc.2.10#95 <= 1
 0 <= arc.2.4#96 <= 1
 0 <= arc.3.10#97 <= 1
 0 <= arc.3.24#98 <= 1
 0 <= arc.3.30#99 <= 1
 0 <= arc.3.15#100 <= 1
 0 <= arc.3.27#101 <= 1
 0 <= arc.4.24#102 <= 1
 0 <= arc.4.29#103 <= 1
 0 <= arc.4.15#104 <= 1
 0 <= arc.4.27#105 <= 1
 0 <= arc.4.10#106 <= 1
 0 <= arc.5.27#107 <= 1
 0 <= arc.6.24#108 <= 1
 0 <= arc.6.27#109 <= 1
 0 <= arc.6.15#110 <= 1
 0 <= arc.6.30#111 <= 1
 0 <= arc.6.4#112 <= 1
 0 <= arc.7.15#113 <= 1
 0 <= arc.7.25#114 <= 1
 0 <= arc.7.27#115 <= 1
 0 <= arc.7.30#116 <= 1
 0 <= arc.7.10#117 <= 1
 0 <= arc.7.24#118 <= 1
 0 <= arc.8.25#119 <= 1
 0 <= arc.8.24#120 <= 1
 0 <= arc.8.15#121 <= 1
 0 <= arc.8.27#122 <= 1
 0 <= arc.9.6#123 <= 1
 0 <= arc.9.16#124 <= 1
 0 <= arc.9.27#125 <= 1
 0 <= arc.9.5#126 <= 1
 0 <= arc.9.7#127 <= 1
 0 <= arc.10.16#128 <= 1
 0 <= arc.10.27#129 <= 1
 0 <= arc.10.7#130 <= 1
 0 <= arc.10.6#131 <= 1
 0 <= arc.10.5#132 <= 1
 0 <= arc.11.8#133 <= 1
 0 <= arc.11.24#134 <= 1
 0 <= arc.11.3#135 <= 1
 0 <= arc.11.7#136 <= 1
 0 <= arc.11.12#137 <= 1
 0 <= arc.11.29#138 <= 1
 0 <= arc.11.16#139 <= 1
 0 <= arc.11.31#140 <= 1
 0 <= arc.11.5#141 <= 1
 0 <= arc.11.19#142 <= 1
 0 <= arc.11.21#143 <= 1
 0 <= arc.11.18#144 <= 1
 0 <= arc.11.27#145 <= 1
 0 <= arc.11.14#146 <= 1
 0 <= arc.11.30#147 <= 1
 0 <= arc.11.23#148 <= 1
 0 <= arc.11.26#149 <= 1
 0 <= arc.11.15#150 <= 1
 0 <= arc.11.6#151 <= 1
 0 <= arc.11.10#152 <= 1
 0 <= arc.11.17#153 <= 1
 0 <= arc.12.24#154 <= 1
 0 <= arc.12.29#155 <= 1
 0 <= arc.12.27#156 <= 1
 0 <= arc.12.4#157 <= 1
 0 <= arc.12.17#158 <= 1
 0 <= arc.12.30#159 <= 1
 0 <= arc.12.10#160 <= 1
 0 <= arc.13.16#161 <= 1
 0 <= arc.13.5#162 <= 1
 0 <= arc.13.7#163 <= 1
 0 <= arc.14.27#164 <= 1
 0 <= arc.15.27#165 <= 1
 0 <= arc.16.15#166 <= 1
 0 <= arc.16.24#167 <= 1
 0 <= arc.16.27#168 <= 1
 0 <= arc.16.4#169 <= 1
 0 <= arc.16.10#170 <= 1
 0 <= arc.17.8#171 <= 1
 0 <= arc.17.4#172 <= 1
 0 <= arc.17.15#173 <= 1
 0 <= arc.17.6#174 <= 1
 0 <= arc.17.3#175 <= 1
 0 <= arc.17.19#176 <= 1
 0 <= arc.17.14#177 <= 1
 0 <= arc.17.9#178 <= 1
 0 <= arc.17.5#179 <= 1
 0 <= arc.17.27#180 <= 1
 0 <= arc.17.2#181 <= 1
 0 <= arc.17.7#182 <= 1
 0 <= arc.17.16#183 <= 1
 0 <= arc.17.26#184 <= 1
 0 <= arc.17.24#185 <= 1
 0 <= arc.17.18#186 <= 1
 0 <= arc.17.25#187 <= 1
 0 <= arc.17.30#188 <= 1
 0 <= arc.18.10#189 <= 1
 0 <= arc.18.30#190 <= 1
 0 <= arc.18.27#191 <= 1
 0 <= arc.18.4#192 <= 1
 0 <= arc.18.15#193 <= 1
 0 <= arc.18.29#194 <= 1
 0 <= arc.18.24#195 <= 1
 0 <= arc.19.27#196 <= 1
 0 <= arc.20.17#197 <= 1
 0 <= arc.20.19#198 <= 1
 0 <= arc.20.2#199 <= 1
 0 <= arc.20.16#200 <= 1
 0 <= arc.20.6#201 <= 1
 0 <= arc.20.3#202 <= 1
 0 <= arc.20.14#203 <= 1
 0 <= arc.20.7#204 <= 1
 0 <= arc.20.15#205 <= 1
 0 <= arc.20.12#206 <= 1
 0 <= arc.20.10#207 <= 1
 0 <= arc.20.18#208 <= 1
 0 <= arc.20.30#209 <= 1
 0 <= arc.20.25#210 <= 1
 0 <= arc.20.24#211 <= 1
 0 <= arc.20.5#212 <= 1
 0 <= arc.20.29#213 <= 1
 0 <= arc.20.22#214 <= 1
 0 <= arc.20.27#215 <= 1
 0 <= arc.20.23#216 <= 1
 0 <= arc.20.8#217 <= 1
 0 <= arc.20.31#218 <= 1
 0 <= arc.21.12#219 <= 1
 0 <= arc.21.29#220 <= 1
 0 <= arc.21.4#221 <= 1
 0 <= arc.21.8#222 <= 1
 0 <= arc.21.30#223 <= 1
 0 <= arc.21.24#224 <= 1
 0 <= arc.21.16#225 <= 1
 0 <= arc.21.5#226 <= 1
 0 <= arc.21.19#227 <= 1
 0 <= arc.21.6#228 <= 1
 0 <= arc.21.7#229 <= 1
 0 <= arc.21.9#230 <= 1
 0 <= arc.21.31#231 <= 1
 0 <= arc.21.27#232 <= 1
 0 <= arc.21.23#233 <= 1
 0 <= arc.21.10#234 <= 1
 0 <= arc.21.15#235 <= 1
 0 <= arc.21.14#236 <= 1
 0 <= arc.21.26#237 <= 1
 0 <= arc.21.22#238 <= 1
 0 <= arc.21.18#239 <= 1
 0 <= arc.22.27#240 <= 1
 0 <= arc.22.15#241 <= 1
 0 <= arc.22.29#242 <= 1
 0 <= arc.22.25#243 <= 1
 0 <= arc.22.30#244 <= 1
 0 <= arc.22.10#245 <= 1
 0 <= arc.22.24#246 <= 1
 0 <= arc.23.16#247 <= 1
 0 <= arc.23.6#248 <= 1
 0 <= arc.23.7#249 <= 1
 0 <= arc.23.27#250 <= 1
 0 <= arc.24.16#251 <= 1
 0 <= arc.24.6#252 <= 1
 0 <= arc.24.5#253 <= 1
 0 <= arc.25.16#254 <= 1
 0 <= arc.25.31#255 <= 1
 0 <= arc.25.29#256 <= 1
 0 <= arc.25.5#257 <= 1
 0 <= arc.25.12#258 <= 1
 0 <= arc.25.18#259 <= 1
 0 <= arc.25.3#260 <= 1
 0 <= arc.25.27#261 <= 1
 0 <= arc.25.7#262 <= 1
 0 <= arc.25.10#263 <= 1
 0 <= arc.25.23#264 <= 1
 0 <= arc.25.8#265 <= 1
 0 <= arc.25.4#266 <= 1
 0 <= arc.25.24#267 <= 1
 0 <= arc.25.30#268 <= 1
 0 <= arc.25.6#269 <= 1
 0 <= arc.25.22#270 <= 1
 0 <= arc.25.15#271 <= 1
 0 <= arc.25.26#272 <= 1
 0 <= arc.25.19#273 <= 1
 0 <= arc.26.15#274 <= 1
 0 <= arc.26.10#275 <= 1
 0 <= arc.26.25#276 <= 1
 0 <= arc.26.24#277 <= 1
 0 <= arc.26.30#278 <= 1
 0 <= arc.26.17#279 <= 1
 0 <= arc.27.5#280 <= 1
 0 <= arc.27.19#281 <= 1
 0 <= arc.27.2#282 <= 1
 0 <= arc.27.15#283 <= 1
 0 <= arc.27.13#284 <= 1
 0 <= arc.27.4#285 <= 1
 0 <= arc.27.18#286 <= 1
 0 <= arc.27.32#287 <= 1
 0 <= arc.27.12#288 <= 1
 0 <= arc.27.16#289 <= 1
 0 <= arc.27.25#290 <= 1
 0 <= arc.27.29#291 <= 1
 0 <= arc.27.30#292 <= 1
 0 <= arc.27.24#293 <= 1
 0 <= arc.27.3#294 <= 1
 0 <= arc.27.10#295 <= 1
 0 <= arc.27.6#296 <= 1
 0 <= arc.27.7#297 <= 1
 0 <= arc.27.23#298 <= 1
 0 <= arc.28.10#299 <= 1
 0 <= arc.28.25#300 <= 1
 0 <= arc.28.9#301 <= 1
 0 <= arc.28.26#302 <= 1
 0 <= arc.28.24#303 <= 1
 0 <= arc.28.15#304 <= 1
 0 <= arc.28.3#305 <= 1
 0 <= arc.28.23#306 <= 1
 0 <= arc.28.18#307 <= 1
 0 <= arc.28.16#308 <= 1
 0 <= arc.28.4#309 <= 1
 0 <= arc.28.21#310 <= 1
 0 <= arc.28.6#311 <= 1
 0 <= arc.28.17#312 <= 1
 0 <= arc.28.27#313 <= 1
 0 <= arc.28.5#314 <= 1
 0 <= arc.28.12#315 <= 1
 0 <= arc.29.27#316 <= 1
 0 <= arc.29.6#317 <= 1
 0 <= arc.29.7#318 <= 1
 0 <= arc.29.5#319 <= 1
 0 <= arc.30.5#320 <= 1
 0 <= arc.30.27#321 <= 1
 0 <= arc.30.16#322 <= 1
 0 <= arc.30.6#323 <= 1
 0 <= arc.31.30#324 <= 1
 0 <= arc.31.4#325 <= 1
 0 <= arc.31.10#326 <= 1
 0 <= arc.31.15#327 <= 1
 0 <= arc.31.29#328 <= 1
 0 <= arc.32.22#329 <= 1
 0 <= arc.32.27#330 <= 1
 0 <= arc.32.15#331 <= 1
 0 <= arc.32.25#332 <= 1
 0 <= arc.32.24#333 <= 1
 0 <= arc.32.30#334 <= 1
 0 <= arc.32.10#335 <= 1
 0 <= arc.32.29#336 <= 1
 0 <= arc.32.20#337 <= 1
 0 <= arc.32.17#338 <= 1
 0 <= arc.33.3#339 <= 1
 0 <= arc.33.8#340 <= 1
 0 <= arc.33.2#341 <= 1
 0 <= arc.33.19#342 <= 1
 0 <= arc.33.26#343 <= 1
 0 <= arc.33.31#344 <= 1
 0 <= arc.33.18#345 <= 1
 0 <= arc.33.14#346 <= 1
 0 <= arc.33.23#347 <= 1
 0 <= arc.34.26#348 <= 1
 0 <= arc.34.19#349 <= 1
 0 <= arc.34.3#350 <= 1
 0 <= arc.34.23#351 <= 1
 0 <= arc.34.8#352 <= 1
 0 <= arc.34.21#353 <= 1
 0 <= arc.34.31#354 <= 1
 0 <= arc.34.12#355 <= 1
 0 <= arc.34.9#356 <= 1
 0 <= arc.35.21#357 <= 1
 0 <= arc.35.9#358 <= 1
 0 <= arc.35.14#359 <= 1
 0 <= arc.35.2#360 <= 1
 0 <= arc.35.3#361 <= 1
 0 <= arc.35.19#362 <= 1
 0 <= arc.35.18#363 <= 1
 0 <= arc.35.12#364 <= 1
 0 <= arc.35.26#365 <= 1
 0 <= arc.35.31#366 <= 1
 0 <= x.7#367 <= 1
 0 <= x.8#368 <= 1
 0 <= x.9#369 <= 1
 0 <= x.10#370 <= 1
 0 <= x.11#371 <= 1
 0 <= x.12#372 <= 1
 0 <= x.4#373 <= 1
 0 <= x.5#374 <= 1
 0 <= x.6#375 <= 1
 0 <= x.13#376 <= 1
 0 <= x.14#377 <= 1
 0 <= x.15#378 <= 1
 0 <= x.16#379 <= 1
 0 <= x.17#380 <= 1
 0 <= x.7#381 <= 1
 0 <= x.8#382 <= 1
 0 <= x.9#383 <= 1
 0 <= x.18#384 <= 1
 0 <= x.19#385 <= 1
 0 <= x.20#386 <= 1
 0 <= x.21#387 <= 1
 0 <= x.10#388 <= 1
 0 <= x.11#389 <= 1
 0 <= x.12#390 <= 1
 0 <= x.22#391 <= 1
 0 <= x.23#392 <= 1
 0 <= x.24#393 <= 1
 0 <= x.13#394 <= 1
 0 <= x.14#395 <= 1
 0 <= x.25#396 <= 1
 0 <= x.26#397 <= 1
 0 <= x.15#398 <= 1
 0 <= x.16#399 <= 1
 0 <= x.27#400 <= 1
 0 <= x.28#401 <= 1
 0 <= x.17#402 <= 1
 0 <= x.18#403 <= 1
 0 <= x.19#404 <= 1
 0 <= x.20#405 <= 1
 0 <= x.29#406 <= 1
 0 <= x.21#407 <= 1
 0 <= x.22#408 <= 1
 0 <= x.30#409 <= 1
 0 <= x.31#410 <= 1
 0 <= x.32#411 <= 1
 0 <= x.23#412 <= 1
 0 <= x.24#413 <= 1
 0 <= x.25#414 <= 1
 0 <= x.26#415 <= 1
 0 <= x.33#416 <= 1
 0 <= x.34#417 <= 1
 0 <= x.27#418 <= 1
 0 <= x.28#419 <= 1
 0 <= x.29#420 <= 1
 0 <= x.30#421 <= 1
 0 <= x.31#422 <= 1
 0 <= x.35#423 <= 1
 0 <= x.32#424 <= 1
 0 <= x.33#425 <= 1
 0 <= x.34#426 <= 1
 0 <= x.36#427 <= 1
 0 <= x.35#428 <= 1
 0 <= x.36#429 <= 1
 0 <= x.37#430 <= 1
 0 <= x.38#431 <= 1
 0 <= x.37#432 <= 1
 0 <= x.39#433 <= 1
 0 <= x.40#434 <= 1
 0 <= x.38#435 <= 1
 0 <= x.41#436 <= 1
 0 <= x.42#437 <= 1
Binaries
 x.1#1  x.2#2  x.3#3  x.4#4  x.5#5  x.6#6  y.1#7  y.2#8  y.3#9  vertex.3#10 
 arc.3.17#11  vertex.17#12  arc.17.21#13  vertex.21#14  arc.21.3#15 
 vertex.4#16  arc.4.30#17  vertex.30#18  arc.30.7#19  vertex.7#20  arc.7.4#21 
 vertex.6#22  arc.6.10#23  vertex.10#24  arc.10.13#25  vertex.13#26 
 arc.13.6#27  vertex.16#28  arc.16.29#29  vertex.29#30  arc.29.16#31 
 vertex.20#32  arc.20.26#33  vertex.26#34  arc.26.22#35  vertex.22#36 
 arc.22.20#37  vertex.24#38  arc.24.27#39  vertex.27#40  arc.27.31#41 
 vertex.31#42  arc.31.24#43  vertex.33#44  arc.33.12#45  vertex.12#46 
 arc.12.15#47  vertex.15#48  vertex.34#49  arc.34.18#50  vertex.18#51 
 arc.18.25#52  vertex.25#53  arc.25.14#54  vertex.14#55  vertex.35#56 
 arc.35.23#57  vertex.23#58  arc.23.5#59  vertex.5#60  vertex.1#61 
 vertex.2#62  vertex.8#63  vertex.9#64  vertex.11#65  vertex.19#66 
 vertex.28#67  vertex.32#68  arc.1.16#69  arc.1.4#70  arc.1.24#71  arc.1.8#72 
 arc.1.5#73  arc.1.27#74  arc.1.6#75  arc.1.32#76  arc.1.2#77  arc.1.30#78 
 arc.1.3#79  arc.1.31#80  arc.1.18#81  arc.1.23#82  arc.1.7#83  arc.1.10#84 
 arc.1.15#85  arc.1.26#86  arc.1.19#87  arc.1.17#88  arc.2.17#89  arc.2.24#90 
 arc.2.30#91  arc.2.15#92  arc.2.29#93  arc.2.27#94  arc.2.10#95  arc.2.4#96 
 arc.3.10#97  arc.3.24#98  arc.3.30#99  arc.3.15#100  arc.3.27#101 
 arc.4.24#102  arc.4.29#103  arc.4.15#104  arc.4.27#105  arc.4.10#106 
 arc.5.27#107  arc.6.24#108  arc.6.27#109  arc.6.15#110  arc.6.30#111 
 arc.6.4#112  arc.7.15#113  arc.7.25#114  arc.7.27#115  arc.7.30#116 
 arc.7.10#117  arc.7.24#118  arc.8.25#119  arc.8.24#120  arc.8.15#121 
 arc.8.27#122  arc.9.6#123  arc.9.16#124  arc.9.27#125  arc.9.5#126 
 arc.9.7#127  arc.10.16#128  arc.10.27#129  arc.10.7#130  arc.10.6#131 
 arc.10.5#132  arc.11.8#133  arc.11.24#134  arc.11.3#135  arc.11.7#136 
 arc.11.12#137  arc.11.29#138  arc.11.16#139  arc.11.31#140  arc.11.5#141 
 arc.11.19#142  arc.11.21#143  arc.11.18#144  arc.11.27#145  arc.11.14#146 
 arc.11.30#147  arc.11.23#148  arc.11.26#149  arc.11.15#150  arc.11.6#151 
 arc.11.10#152  arc.11.17#153  arc.12.24#154  arc.12.29#155  arc.12.27#156 
 arc.12.4#157  arc.12.17#158  arc.12.30#159  arc.12.10#160  arc.13.16#161 
 arc.13.5#162  arc.13.7#163  arc.14.27#164  arc.15.27#165  arc.16.15#166 
 arc.16.24#167  arc.16.27#168  arc.16.4#169  arc.16.10#170  arc.17.8#171 
 arc.17.4#172  arc.17.15#173  arc.17.6#174  arc.17.3#175  arc.17.19#176 
 arc.17.14#177  arc.17.9#178  arc.17.5#179  arc.17.27#180  arc.17.2#181 
 arc.17.7#182  arc.17.16#183  arc.17.26#184  arc.17.24#185  arc.17.18#186 
 arc.17.25#187  arc.17.30#188  arc.18.10#189  arc.18.30#190  arc.18.27#191 
 arc.18.4#192  arc.18.15#193  arc.18.29#194  arc.18.24#195  arc.19.27#196 
 arc.20.17#197  arc.20.19#198  arc.20.2#199  arc.20.16#200  arc.20.6#201 
 arc.20.3#202  arc.20.14#203  arc.20.7#204  arc.20.15#205  arc.20.12#206 
 arc.20.10#207  arc.20.18#208  arc.20.30#209  arc.20.25#210  arc.20.24#211 
 arc.20.5#212  arc.20.29#213  arc.20.22#214  arc.20.27#215  arc.20.23#216 
 arc.20.8#217  arc.20.31#218  arc.21.12#219  arc.21.29#220  arc.21.4#221 
 arc.21.8#222  arc.21.30#223  arc.21.24#224  arc.21.16#225  arc.21.5#226 
 arc.21.19#227  arc.21.6#228  arc.21.7#229  arc.21.9#230  arc.21.31#231 
 arc.21.27#232  arc.21.23#233  arc.21.10#234  arc.21.15#235  arc.21.14#236 
 arc.21.26#237  arc.21.22#238  arc.21.18#239  arc.22.27#240  arc.22.15#241 
 arc.22.29#242  arc.22.25#243  arc.22.30#244  arc.22.10#245  arc.22.24#246 
 arc.23.16#247  arc.23.6#248  arc.23.7#249  arc.23.27#250  arc.24.16#251 
 arc.24.6#252  arc.24.5#253  arc.25.16#254  arc.25.31#255  arc.25.29#256 
 arc.25.5#257  arc.25.12#258  arc.25.18#259  arc.25.3#260  arc.25.27#261 
 arc.25.7#262  arc.25.10#263  arc.25.23#264  arc.25.8#265  arc.25.4#266 
 arc.25.24#267  arc.25.30#268  arc.25.6#269  arc.25.22#270  arc.25.15#271 
 arc.25.26#272  arc.25.19#273  arc.26.15#274  arc.26.10#275  arc.26.25#276 
 arc.26.24#277  arc.26.30#278  arc.26.17#279  arc.27.5#280  arc.27.19#281 
 arc.27.2#282  arc.27.15#283  arc.27.13#284  arc.27.4#285  arc.27.18#286 
 arc.27.32#287  arc.27.12#288  arc.27.16#289  arc.27.25#290  arc.27.29#291 
 arc.27.30#292  arc.27.24#293  arc.27.3#294  arc.27.10#295  arc.27.6#296 
 arc.27.7#297  arc.27.23#298  arc.28.10#299  arc.28.25#300  arc.28.9#301 
 arc.28.26#302  arc.28.24#303  arc.28.15#304  arc.28.3#305  arc.28.23#306 
 arc.28.18#307  arc.28.16#308  arc.28.4#309  arc.28.21#310  arc.28.6#311 
 arc.28.17#312  arc.28.27#313  arc.28.5#314  arc.28.12#315  arc.29.27#316 
 arc.29.6#317  arc.29.7#318  arc.29.5#319  arc.30.5#320  arc.30.27#321 
 arc.30.16#322  arc.30.6#323  arc.31.30#324  arc.31.4#325  arc.31.10#326 
 arc.31.15#327  arc.31.29#328  arc.32.22#329  arc.32.27#330  arc.32.15#331 
 arc.32.25#332  arc.32.24#333  arc.32.30#334  arc.32.10#335  arc.32.29#336 
 arc.32.20#337  arc.32.17#338  arc.33.3#339  arc.33.8#340  arc.33.2#341 
 arc.33.19#342  arc.33.26#343  arc.33.31#344  arc.33.18#345  arc.33.14#346 
 arc.33.23#347  arc.34.26#348  arc.34.19#349  arc.34.3#350  arc.34.23#351 
 arc.34.8#352  arc.34.21#353  arc.34.31#354  arc.34.12#355  arc.34.9#356 
 arc.35.21#357  arc.35.9#358  arc.35.14#359  arc.35.2#360  arc.35.3#361 
 arc.35.19#362  arc.35.18#363  arc.35.12#364  arc.35.26#365  arc.35.31#366 
 x.7#367  x.8#368  x.9#369  x.10#370  x.11#371  x.12#372  x.4#373  x.5#374 
 x.6#375  x.13#376  x.14#377  x.15#378  x.16#379  x.17#380  x.7#381  x.8#382 
 x.9#383  x.18#384  x.19#385  x.20#386  x.21#387  x.10#388  x.11#389  x.12#390 
 x.22#391  x.23#392  x.24#393  x.13#394  x.14#395  x.25#396  x.26#397 
 x.15#398  x.16#399  x.27#400  x.28#401  x.17#402  x.18#403  x.19#404 
 x.20#405  x.29#406  x.21#407  x.22#408  x.30#409  x.31#410  x.32#411 
 x.23#412  x.24#413  x.25#414  x.26#415  x.33#416  x.34#417  x.27#418 
 x.28#419  x.29#420  x.30#421  x.31#422  x.35#423  x.32#424  x.33#425 
 x.34#426  x.36#427  x.35#428  x.36#429  x.37#430  x.38#431  x.37#432 
 x.39#433  x.40#434  x.38#435  x.41#436  x.42#437 
End
